(declare-const BAV1 Bool)
(declare-const BAV2 Bool)
(declare-const GEN2 Int)
(declare-const GEN1 Int)
(set-option :produce-unsat-cores true)
(declare-const a Bool)
(assert (or (not a) (= 1 0)))
(check-sat a)
(get-unsat-core)
(assert (= BAV1 (or (not a) (= 1 0))))
(assert (= BAV2 (= 1 0)))